# Solution for model problem
# Objective value = 13
src_slave 0
ptr_slave 1
cache_master 1
map_cache_CLIENT_PE14 1
tooth_slave 1
sink_slave 1
sl_3_a3_01 1
hop_5_a3_01 1
sl_4_a3_12 1
hop_10_a3_12 1
sl_6_a3_23 1
hop_7_a3_23 1
sl_4_a3_34 1
hop_12_a3_34 1
src_master 1
C_ptr_src 1
C_cache_src 0
C_tooth_src 1
C_sink_src 1
map_src_CLIENT_PE14 0
map_src_CLIENT_PE16 0
map_src_CLIENT_PE15 0
map_src_CLIENT_PE6 0
map_src_CLIENT_PE10 0
map_src_CLIENT_PE7 0
map_src_CLIENT_PE8 0
map_src_CLIENT_PE5 0
map_src_CLIENT_PE0 0
map_src_CLIENT_PE13 0
map_src_CLIENT_PE3 1
map_src_CLIENT_PE2 0
map_src_CLIENT_PE12 0
map_src_CLIENT_PE4 0
map_src_CLIENT_PE1 0
map_src_CLIENT_PE11 0
map_src_CLIENT_PE9 0
C_src_ptr 0
C_src_cache 0
C_src_tooth 0
C_src_sink 0
ptr_master 0
C_cache_ptr 0
C_tooth_ptr 0
C_sink_ptr 0
map_ptr_CLIENT_PE14 0
map_ptr_CLIENT_PE6 0
map_ptr_CLIENT_PE7 0
map_ptr_CLIENT_PE0 0
map_ptr_CLIENT_PE13 0
map_ptr_CLIENT_PE3 0
map_ptr_CLIENT_PE2 0
map_ptr_CLIENT_PE4 0
C_ptr_cache 0
C_ptr_tooth 0
C_ptr_sink 0
cache_slave 0
C_tooth_cache 0
C_sink_cache 0
map_cache_CLIENT_PE6 0
map_cache_CLIENT_PE7 0
map_cache_CLIENT_PE0 0
map_cache_CLIENT_PE13 0
map_cache_CLIENT_PE3 0
map_cache_CLIENT_PE2 0
map_cache_CLIENT_PE4 0
C_cache_tooth 0
C_cache_sink 0
tooth_master 0
C_sink_tooth 0
map_tooth_CLIENT_PE14 0
map_tooth_CLIENT_PE6 0
map_tooth_CLIENT_PE7 0
map_tooth_CLIENT_PE0 0
map_tooth_CLIENT_PE13 0
map_tooth_CLIENT_PE3 0
map_tooth_CLIENT_PE2 0
map_tooth_CLIENT_PE4 0
C_tooth_sink 0
sink_master 0
map_sink_CLIENT_PE14 0
map_sink_CLIENT_PE16 0
map_sink_CLIENT_PE15 0
map_sink_CLIENT_PE6 0
map_sink_CLIENT_PE10 0
map_sink_CLIENT_PE7 0
map_sink_CLIENT_PE8 0
map_sink_CLIENT_PE5 0
map_sink_CLIENT_PE0 0
map_sink_CLIENT_PE13 0
map_sink_CLIENT_PE3 0
map_sink_CLIENT_PE2 0
map_sink_CLIENT_PE12 0
map_sink_CLIENT_PE4 0
map_sink_CLIENT_PE1 0
map_sink_CLIENT_PE11 0
map_sink_CLIENT_PE9 0
sl_0_a3_01 0
sl_1_a3_01 0
sl_2_a3_01 0
sl_4_a3_01 0
sl_5_a3_01 0
sl_6_a3_01 0
sl_7_a3_01 0
sl_8_a3_01 0
sl_9_a3_01 0
hop_1_a3_01 0
hop_2_a3_01 0
hop_3_a3_01 0
hop_4_a3_01 0
hop_6_a3_01 0
hop_7_a3_01 0
hop_8_a3_01 0
hop_9_a3_01 0
hop_10_a3_01 0
hop_11_a3_01 0
hop_12_a3_01 0
hop_13_a3_01 0
hop_14_a3_01 0
sl_0_a3_12 0
sl_1_a3_12 0
sl_2_a3_12 0
sl_3_a3_12 0
sl_5_a3_12 0
sl_6_a3_12 0
sl_7_a3_12 0
sl_8_a3_12 0
sl_9_a3_12 0
hop_1_a3_12 0
hop_2_a3_12 0
hop_3_a3_12 0
hop_4_a3_12 0
hop_5_a3_12 0
hop_6_a3_12 0
hop_7_a3_12 0
hop_8_a3_12 0
hop_9_a3_12 0
hop_11_a3_12 0
hop_12_a3_12 0
hop_13_a3_12 0
hop_14_a3_12 0
sl_0_a3_23 0
sl_1_a3_23 0
sl_2_a3_23 0
sl_3_a3_23 0
sl_4_a3_23 0
sl_5_a3_23 0
sl_7_a3_23 0
sl_8_a3_23 0
sl_9_a3_23 0
hop_1_a3_23 0
hop_2_a3_23 0
hop_3_a3_23 0
hop_4_a3_23 0
hop_5_a3_23 0
hop_6_a3_23 0
hop_8_a3_23 0
hop_9_a3_23 0
hop_10_a3_23 0
hop_11_a3_23 0
hop_12_a3_23 0
hop_13_a3_23 0
hop_14_a3_23 0
sl_0_a3_34 0
sl_1_a3_34 0
sl_2_a3_34 0
sl_3_a3_34 0
sl_5_a3_34 0
sl_6_a3_34 0
sl_7_a3_34 0
sl_8_a3_34 0
sl_9_a3_34 0
hop_1_a3_34 0
hop_2_a3_34 0
hop_3_a3_34 0
hop_4_a3_34 0
hop_5_a3_34 0
hop_6_a3_34 0
hop_7_a3_34 0
hop_8_a3_34 0
hop_9_a3_34 0
hop_10_a3_34 0
hop_11_a3_34 0
hop_13_a3_34 0
hop_14_a3_34 0
